networks/zoo_136_2734/zoo_136_2734-lower.txt
Number of groups: 64
Flow 1: {1 12 0} {12 11 0} {11 7 0} {7 2 0} {2 70 0} 
Flow 2: {1 4 0} {4 3 0} {3 71 0} 
Flow 3: {4 72 0} 
Flow 4: {7 6 0} {6 5 0} {5 73 0} 
Flow 5: {6 74 0} 
Flow 6: {7 75 0} 
Flow 7: {2 8 0} {8 76 0} 
Flow 8: {4 9 0} {9 77 0} 
Flow 9: {4 30 0} {30 10 0} {10 78 0} 
Flow 10: {11 79 0} 
Flow 11: {12 80 0} 
Flow 12: {1 63 0} {63 62 0} {62 13 0} {13 81 0} 
Flow 13: {62 14 0} {14 82 0} 
Flow 14: {63 15 0} {15 83 0} 
Flow 15: {63 16 0} {16 84 0} 
Flow 16: {63 26 0} {26 17 0} {17 85 0} 
Flow 17: {17 18 0} {18 86 0} 
Flow 18: {12 52 0} {52 19 0} {19 87 0} 
Flow 19: {52 20 0} {20 88 0} 
Flow 20: {52 21 0} {21 89 0} 
Flow 21: {52 22 0} {22 90 0} 
Flow 22: {53 24 0} {24 92 0} 
Flow 22: {52 53 0} Flow 23: {53 25 0} {25 93 0} 
Flow 24: {26 94 0} 
Flow 25: {9 27 0} {27 95 0} 
Flow 26: {4 28 0} {28 96 0} 
Flow 27: {53 29 0} {29 97 0} 
Flow 28: {30 98 0} 
Flow 29: {68 31 0} {31 99 0} 
Flow 29: {63 68 0} Flow 30: {68 32 0} {32 100 0} 
Flow 31: {52 33 0} {33 101 0} 
Flow 32: {53 34 0} {34 102 0} 
Flow 33: {2 35 0} {35 103 0} 
Flow 34: {7 36 0} {36 104 0} 
Flow 35: {12 51 0} {51 37 0} {37 105 0} 
Flow 36: {51 38 0} {38 106 0} 
Flow 37: {42 39 0} {39 107 0} 
Flow 37: {62 41 0} {41 42 0} Flow 38: {18 40 0} {40 108 0} 
Flow 39: {41 109 0} 
Flow 40: {42 110 0} 
Flow 41: {62 44 0} {44 112 0} 
Flow 42: {62 45 0} {45 113 0} 
Flow 43: {62 46 0} {46 114 0} 
Flow 44: {52 47 0} {47 115 0} 
Flow 45: {52 48 0} {48 116 0} 
Flow 46: {51 49 0} {49 117 0} 
Flow 47: {51 50 0} {50 118 0} 
Flow 48: {51 119 0} 
Flow 49: {52 120 0} 
Flow 50: {53 121 0} 
Flow 51: {52 54 0} {54 122 0} 
Flow 52: {52 55 0} {55 123 0} 
Flow 53: {12 56 0} {56 124 0} 
Flow 54: {63 61 0} {61 57 0} {57 125 0} 
Flow 55: {3 59 0} {59 127 0} 
Flow 56: {61 60 0} {60 128 0} 
Flow 57: {61 129 0} 
Flow 58: {62 130 0} 
Flow 59: {63 131 0} 
Flow 60: {61 64 0} {64 132 0} 
Flow 61: {4 65 0} {65 133 0} 
Flow 62: {61 67 0} {67 135 0} 
Flow 63: {68 136 0} 
Flow 64: {4 1 0} {1 69 0} 
Flow 64: {2 7 0} {7 3 0} {3 4 0} Flow 67: {8 5 0} Flow 73: {7 11 0} Flow 74: {11 12 0} Flow 75: {7 59 0} {59 61 0} {61 62 0} Flow 77: {61 63 0} Flow 80: {7 19 0} Flow 81: {7 52 0} Flow 84: {2 34 0} {34 53 0} Flow 93: {7 51 0} Flow 96: {39 40 0} Flow 121: {3 7 0} Flow 141: {19 53 0} Flow 235: {5 6 0} {6 7 0} Flow 236: {5 8 0} {8 2 0} Flow 420: {9 4 0} Flow 428: {9 30 0} Flow 477: {10 30 0} {30 4 0} Flow 483: {12 1 0} Flow 603: {13 62 0} {62 63 0} {63 1 0} Flow 604: {62 61 0} {61 59 0} {59 7 0} Flow 630: {14 62 0} Flow 637: {15 63 0} Flow 645: {16 63 0} Flow 693: {17 26 0} {26 63 0} Flow 721: {40 39 0} Flow 723: {39 42 0} Flow 743: {18 17 0} Flow 777: {42 41 0} Flow 801: {19 52 0} {52 12 0} Flow 802: {19 7 0} Flow 864: {21 52 0} Flow 865: {52 7 0} Flow 905: {22 52 0} Flow 954: {23 53 0} {53 52 0} Flow 955: {34 2 0} Flow 956: {53 19 0} Flow 998: {24 53 0} Flow 1054: {25 53 0} Flow 1095: {27 9 0} Flow 1100: {28 4 0} Flow 1147: {29 53 0} Flow 1198: {30 9 0} Flow 1239: {31 68 0} {68 63 0} Flow 1244: {32 68 0} Flow 1272: {33 52 0} Flow 1345: {35 2 0} Flow 1385: {36 7 0} Flow 1426: {37 51 0} {51 12 0} Flow 1427: {51 7 0} Flow 1475: {38 51 0} Flow 1480: {41 62 0} Flow 1490: {40 18 0} Flow 1564: {59 3 0} Flow 1666: {43 62 0} Flow 1668: {44 62 0} Flow 1707: {45 62 0} Flow 1749: {47 52 0} Flow 1757: {48 52 0} Flow 1778: {49 51 0} Flow 1795: {50 51 0} Flow 2006: {54 52 0} Flow 2049: {55 52 0} Flow 2099: {56 12 0} Flow 2140: {57 61 0} Flow 2189: {58 53 0} Flow 2297: {60 61 0} Flow 2527: {64 61 0} Flow 2574: {65 4 0} Flow 2626: {67 61 0} Time taken running everything: 0 seconds
