networks/zoo_136_2734/zoo_136_2734-lower.sol
<?xml version = "1.0" encoding="UTF-8" standalone="yes"?>
<CPLEXSolution version="1.2">
 <header
   problemName="networks/zoo_136_2734/zoo_136_2734-lower.lp"
   solutionName="incumbent"
   solutionIndex="-1"
   objectiveValue="64"
   solutionTypeValue="3"
   solutionTypeString="primal"
   solutionStatusValue="101"
   solutionStatusString="integer optimal solution"
   solutionMethodString="mip"
   primalFeasible="1"
   dualFeasible="1"
   MIPNodes="0"
   MIPIterations="0"
   writeLevel="3"/>
 <quality
   epInt="1.0000000000000001e-05"
   epRHS="9.9999999999999995e-07"
   maxIntInfeas="0"
   maxPrimalInfeas="0"
   maxX="1"
   maxSlack="1"/>
 <variables>
  <variable name="Y(1,2)" index="1" value="1"/>
  <variable name="Y(2,3)" index="133" value="1"/>
  <variable name="Y(3,4)" index="265" value="1"/>
  <variable name="Y(4,5)" index="397" value="1"/>
  <variable name="Y(5,6)" index="529" value="1"/>
  <variable name="Y(6,7)" index="661" value="1"/>
  <variable name="Y(7,8)" index="793" value="1"/>
  <variable name="Y(8,9)" index="925" value="1"/>
  <variable name="Y(9,10)" index="1057" value="1"/>
  <variable name="Y(10,11)" index="1189" value="1"/>
  <variable name="Y(11,12)" index="1321" value="1"/>
  <variable name="Y(12,13)" index="1453" value="1"/>
  <variable name="Y(13,14)" index="1585" value="1"/>
  <variable name="Y(14,15)" index="1717" value="1"/>
  <variable name="Y(15,16)" index="1849" value="1"/>
  <variable name="Y(16,17)" index="1981" value="1"/>
  <variable name="Y(17,18)" index="2113" value="1"/>
  <variable name="Y(18,19)" index="2245" value="1"/>
  <variable name="Y(19,20)" index="2377" value="1"/>
  <variable name="Y(20,21)" index="2509" value="1"/>
  <variable name="Y(21,22)" index="2641" value="1"/>
  <variable name="Y(22,24)" index="2774" value="1"/>
  <variable name="Y(23,25)" index="2906" value="1"/>
  <variable name="Y(24,26)" index="3038" value="1"/>
  <variable name="Y(25,27)" index="3170" value="1"/>
  <variable name="Y(26,28)" index="3302" value="1"/>
  <variable name="Y(27,29)" index="3434" value="1"/>
  <variable name="Y(28,30)" index="3566" value="1"/>
  <variable name="Y(29,31)" index="3698" value="1"/>
  <variable name="Y(30,32)" index="3830" value="1"/>
  <variable name="Y(31,33)" index="3962" value="1"/>
  <variable name="Y(32,34)" index="4094" value="1"/>
  <variable name="Y(33,35)" index="4226" value="1"/>
  <variable name="Y(34,36)" index="4358" value="1"/>
  <variable name="Y(35,37)" index="4490" value="1"/>
  <variable name="Y(36,38)" index="4622" value="1"/>
  <variable name="Y(37,39)" index="4754" value="1"/>
  <variable name="Y(38,40)" index="4886" value="1"/>
  <variable name="Y(39,41)" index="5018" value="1"/>
  <variable name="Y(40,42)" index="5150" value="1"/>
  <variable name="Y(41,44)" index="5283" value="1"/>
  <variable name="Y(42,45)" index="5415" value="1"/>
  <variable name="Y(43,46)" index="5547" value="1"/>
  <variable name="Y(44,47)" index="5679" value="1"/>
  <variable name="Y(45,48)" index="5811" value="1"/>
  <variable name="Y(46,49)" index="5943" value="1"/>
  <variable name="Y(47,50)" index="6075" value="1"/>
  <variable name="Y(48,51)" index="6207" value="1"/>
  <variable name="Y(49,52)" index="6339" value="1"/>
  <variable name="Y(50,53)" index="6471" value="1"/>
  <variable name="Y(51,54)" index="6603" value="1"/>
  <variable name="Y(52,55)" index="6735" value="1"/>
  <variable name="Y(53,56)" index="6867" value="1"/>
  <variable name="Y(54,57)" index="6999" value="1"/>
  <variable name="Y(55,59)" index="7132" value="1"/>
  <variable name="Y(56,60)" index="7264" value="1"/>
  <variable name="Y(57,61)" index="7396" value="1"/>
  <variable name="Y(58,62)" index="7528" value="1"/>
  <variable name="Y(59,63)" index="7660" value="1"/>
  <variable name="Y(60,64)" index="7792" value="1"/>
  <variable name="Y(61,65)" index="7924" value="1"/>
  <variable name="Y(62,67)" index="8056" value="1"/>
  <variable name="Y(63,68)" index="8188" value="1"/>
  <variable name="Y(64,1)" index="8253" value="1"/>
  <variable name="X(1,4,2)" index="358155" value="1"/>
  <variable name="X(1,12,1)" index="360888" value="1"/>
  <variable name="X(1,63,12)" index="363633" value="1"/>
  <variable name="X(1,69,64)" index="366419" value="1"/>
  <variable name="X(2,7,64)" index="369153" value="1"/>
  <variable name="X(2,8,7)" index="371830" value="1"/>
  <variable name="X(2,34,84)" index="374641" value="1"/>
  <variable name="X(2,35,33)" index="377324" value="1"/>
  <variable name="X(2,70,1)" index="380026" value="1"/>
  <variable name="X(3,4,64)" index="382823" value="1"/>
  <variable name="X(3,7,121)" index="385614" value="1"/>
  <variable name="X(3,59,55)" index="388282" value="1"/>
  <variable name="X(3,71,2)" index="390963" value="1"/>
  <variable name="X(4,1,64)" index="393759" value="1"/>
  <variable name="X(4,3,2)" index="396431" value="1"/>
  <variable name="X(4,9,8)" index="399171" value="1"/>
  <variable name="X(4,28,26)" index="401923" value="1"/>
  <variable name="X(4,30,9)" index="404640" value="1"/>
  <variable name="X(4,65,61)" index="407426" value="1"/>
  <variable name="X(4,72,3)" index="410102" value="1"/>
  <variable name="X(5,6,235)" index="413068" value="1"/>
  <variable name="X(5,8,236)" index="415803" value="1"/>
  <variable name="X(5,73,4)" index="418305" value="1"/>
  <variable name="X(6,5,4)" index="421039" value="1"/>
  <variable name="X(6,7,235)" index="424004" value="1"/>
  <variable name="X(6,74,5)" index="426508" value="1"/>
  <variable name="X(7,2,1)" index="429238" value="1"/>
  <variable name="X(7,3,64)" index="432035" value="1"/>
  <variable name="X(7,6,4)" index="434709" value="1"/>
  <variable name="X(7,11,73)" index="437512" value="1"/>
  <variable name="X(7,19,80)" index="440253" value="1"/>
  <variable name="X(7,36,34)" index="442941" value="1"/>
  <variable name="X(7,51,93)" index="445734" value="1"/>
  <variable name="X(7,52,81)" index="448456" value="1"/>
  <variable name="X(7,59,75)" index="451184" value="1"/>
  <variable name="X(7,75,6)" index="453849" value="1"/>
  <variable name="X(8,2,236)" index="456813" value="1"/>
  <variable name="X(8,5,67)" index="459378" value="1"/>
  <variable name="X(8,76,7)" index="462052" value="1"/>
  <variable name="X(9,4,420)" index="465199" value="1"/>
  <variable name="X(9,27,25)" index="467538" value="1"/>
  <variable name="X(9,30,428)" index="470675" value="1"/>
  <variable name="X(9,77,8)" index="472989" value="1"/>
  <variable name="X(10,30,477)" index="476192" value="1"/>
  <variable name="X(10,78,9)" index="478458" value="1"/>
  <variable name="X(11,7,1)" index="481184" value="1"/>
  <variable name="X(11,12,74)" index="483991" value="1"/>
  <variable name="X(11,79,10)" index="486661" value="1"/>
  <variable name="X(12,1,483)" index="489868" value="1"/>
  <variable name="X(12,11,1)" index="492120" value="1"/>
  <variable name="X(12,51,35)" index="494888" value="1"/>
  <variable name="X(12,52,18)" index="497605" value="1"/>
  <variable name="X(12,56,53)" index="500374" value="1"/>
  <variable name="X(12,80,11)" index="503066" value="1"/>
  <variable name="X(13,62,603)" index="506392" value="1"/>
  <variable name="X(13,81,12)" index="508535" value="1"/>
  <variable name="X(14,62,630)" index="511887" value="1"/>
  <variable name="X(14,82,13)" index="514004" value="1"/>
  <variable name="X(15,63,637)" index="517362" value="1"/>
  <variable name="X(15,83,14)" index="519473" value="1"/>
  <variable name="X(16,63,645)" index="522838" value="1"/>
  <variable name="X(16,84,15)" index="524942" value="1"/>
  <variable name="X(17,18,17)" index="527678" value="1"/>
  <variable name="X(17,26,693)" index="531088" value="1"/>
  <variable name="X(17,85,16)" index="533145" value="1"/>
  <variable name="X(18,17,743)" index="536606" value="1"/>
  <variable name="X(18,40,38)" index="538635" value="1"/>
  <variable name="X(18,86,17)" index="541348" value="1"/>
  <variable name="X(19,7,802)" index="544867" value="1"/>
  <variable name="X(19,52,801)" index="547600" value="1"/>
  <variable name="X(19,53,141)" index="549674" value="1"/>
  <variable name="X(19,87,18)" index="552285" value="1"/>
  <variable name="X(20,88,19)" index="555020" value="1"/>
  <variable name="X(21,52,864)" index="558599" value="1"/>
  <variable name="X(21,89,20)" index="560489" value="1"/>
  <variable name="X(22,52,905)" index="564108" value="1"/>
  <variable name="X(22,90,21)" index="565958" value="1"/>
  <variable name="X(23,53,954)" index="569625" value="1"/>
  <variable name="X(24,53,998)" index="572403" value="1"/>
  <variable name="X(24,92,22)" index="574161" value="1"/>
  <variable name="X(25,53,1054)" index="577927" value="1"/>
  <variable name="X(25,93,23)" index="579630" value="1"/>
  <variable name="X(26,17,16)" index="582357" value="1"/>
  <variable name="X(26,63,693)" index="585768" value="1"/>
  <variable name="X(26,94,24)" index="587833" value="1"/>
  <variable name="X(27,9,1095)" index="591638" value="1"/>
  <variable name="X(27,95,25)" index="593302" value="1"/>
  <variable name="X(28,4,1100)" index="597111" value="1"/>
  <variable name="X(28,96,26)" index="598771" value="1"/>
  <variable name="X(29,53,1147)" index="602626" value="1"/>
  <variable name="X(29,97,27)" index="604240" value="1"/>
  <variable name="X(30,4,477)" index="607424" value="1"/>
  <variable name="X(30,9,1198)" index="610879" value="1"/>
  <variable name="X(30,10,9)" index="612424" value="1"/>
  <variable name="X(30,98,28)" index="615177" value="1"/>
  <variable name="X(31,68,1239)" index="619122" value="1"/>
  <variable name="X(31,99,29)" index="620646" value="1"/>
  <variable name="X(32,68,1244)" index="624595" value="1"/>
  <variable name="X(32,100,30)" index="626115" value="1"/>
  <variable name="X(33,52,1272)" index="630091" value="1"/>
  <variable name="X(33,101,31)" index="631584" value="1"/>
  <variable name="X(34,2,955)" index="635242" value="1"/>
  <variable name="X(34,53,84)" index="637105" value="1"/>
  <variable name="X(34,102,32)" index="639787" value="1"/>
  <variable name="X(35,2,1345)" index="643834" value="1"/>
  <variable name="X(35,103,33)" index="645256" value="1"/>
  <variable name="X(36,7,1385)" index="649342" value="1"/>
  <variable name="X(36,104,34)" index="650725" value="1"/>
  <variable name="X(37,51,1426)" index="654851" value="1"/>
  <variable name="X(37,105,35)" index="656194" value="1"/>
  <variable name="X(38,51,1475)" index="660368" value="1"/>
  <variable name="X(38,106,36)" index="661663" value="1"/>
  <variable name="X(39,40,96)" index="664457" value="1"/>
  <variable name="X(39,42,723)" index="667818" value="1"/>
  <variable name="X(39,107,37)" index="669866" value="1"/>
  <variable name="X(40,18,1490)" index="674053" value="1"/>
  <variable name="X(40,39,721)" index="676018" value="1"/>
  <variable name="X(40,108,38)" index="678069" value="1"/>
  <variable name="X(41,42,37)" index="680802" value="1"/>
  <variable name="X(41,62,1480)" index="684979" value="1"/>
  <variable name="X(41,109,39)" index="686272" value="1"/>
  <variable name="X(42,39,37)" index="689004" value="1"/>
  <variable name="X(42,41,777)" index="692478" value="1"/>
  <variable name="X(42,110,40)" index="694475" value="1"/>
  <variable name="X(43,62,1666)" index="698835" value="1"/>
  <variable name="X(44,62,1668)" index="701571" value="1"/>
  <variable name="X(44,112,41)" index="702678" value="1"/>
  <variable name="X(45,62,1707)" index="707078" value="1"/>
  <variable name="X(45,113,42)" index="708147" value="1"/>
  <variable name="X(46,114,43)" index="710882" value="1"/>
  <variable name="X(47,52,1749)" index="715322" value="1"/>
  <variable name="X(47,115,44)" index="716351" value="1"/>
  <variable name="X(48,52,1757)" index="720798" value="1"/>
  <variable name="X(48,116,45)" index="721820" value="1"/>
  <variable name="X(49,51,1778)" index="726287" value="1"/>
  <variable name="X(49,117,46)" index="727289" value="1"/>
  <variable name="X(50,51,1795)" index="731772" value="1"/>
  <variable name="X(50,118,47)" index="732758" value="1"/>
  <variable name="X(51,7,1427)" index="736872" value="1"/>
  <variable name="X(51,12,1426)" index="739605" value="1"/>
  <variable name="X(51,37,35)" index="740948" value="1"/>
  <variable name="X(51,38,36)" index="743683" value="1"/>
  <variable name="X(51,49,46)" index="746427" value="1"/>
  <variable name="X(51,50,47)" index="749162" value="1"/>
  <variable name="X(51,119,48)" index="751897" value="1"/>
  <variable name="X(52,7,865)" index="755448" value="1"/>
  <variable name="X(52,12,801)" index="758118" value="1"/>
  <variable name="X(52,19,18)" index="760069" value="1"/>
  <variable name="X(52,20,19)" index="762804" value="1"/>
  <variable name="X(52,21,20)" index="765539" value="1"/>
  <variable name="X(52,22,21)" index="768274" value="1"/>
  <variable name="X(52,33,31)" index="771018" value="1"/>
  <variable name="X(52,47,44)" index="773765" value="1"/>
  <variable name="X(52,48,45)" index="776500" value="1"/>
  <variable name="X(52,53,22)" index="779211" value="1"/>
  <variable name="X(52,54,51)" index="781974" value="1"/>
  <variable name="X(52,55,52)" index="784709" value="1"/>
  <variable name="X(52,120,49)" index="787440" value="1"/>
  <variable name="X(53,19,956)" index="791081" value="1"/>
  <variable name="X(53,24,22)" index="792881" value="1"/>
  <variable name="X(53,25,23)" index="795616" value="1"/>
  <variable name="X(53,29,27)" index="798354" value="1"/>
  <variable name="X(53,34,32)" index="801093" value="1"/>
  <variable name="X(53,52,954)" index="804749" value="1"/>
  <variable name="X(53,121,50)" index="806579" value="1"/>
  <variable name="X(54,52,2006)" index="811269" value="1"/>
  <variable name="X(54,122,51)" index="812048" value="1"/>
  <variable name="X(55,52,2049)" index="816780" value="1"/>
  <variable name="X(55,123,52)" index="817517" value="1"/>
  <variable name="X(56,12,2099)" index="822298" value="1"/>
  <variable name="X(56,124,53)" index="822986" value="1"/>
  <variable name="X(57,61,2140)" index="827807" value="1"/>
  <variable name="X(57,125,54)" index="828455" value="1"/>
  <variable name="X(58,53,2189)" index="833324" value="1"/>
  <variable name="X(59,3,1564)" index="835433" value="1"/>
  <variable name="X(59,7,604)" index="837207" value="1"/>
  <variable name="X(59,61,75)" index="839412" value="1"/>
  <variable name="X(59,127,55)" index="842126" value="1"/>
  <variable name="X(60,61,2297)" index="847102" value="1"/>
  <variable name="X(60,128,56)" index="847595" value="1"/>
  <variable name="X(61,57,54)" index="850327" value="1"/>
  <variable name="X(61,59,604)" index="853611" value="1"/>
  <variable name="X(61,60,56)" index="855797" value="1"/>
  <variable name="X(61,62,75)" index="858550" value="1"/>
  <variable name="X(61,63,77)" index="861286" value="1"/>
  <variable name="X(61,64,60)" index="864003" value="1"/>
  <variable name="X(61,67,62)" index="866739" value="1"/>
  <variable name="X(61,129,57)" index="869468" value="1"/>
  <variable name="X(62,13,12)" index="872157" value="1"/>
  <variable name="X(62,14,13)" index="874892" value="1"/>
  <variable name="X(62,41,37)" index="877650" value="1"/>
  <variable name="X(62,44,41)" index="880388" value="1"/>
  <variable name="X(62,45,42)" index="883123" value="1"/>
  <variable name="X(62,46,43)" index="885858" value="1"/>
  <variable name="X(62,61,604)" index="889153" value="1"/>
  <variable name="X(62,63,603)" index="891886" value="1"/>
  <variable name="X(62,130,58)" index="894075" value="1"/>
  <variable name="X(63,1,603)" index="897354" value="1"/>
  <variable name="X(63,15,14)" index="899499" value="1"/>
  <variable name="X(63,16,15)" index="902234" value="1"/>
  <variable name="X(63,26,16)" index="904969" value="1"/>
  <variable name="X(63,61,54)" index="907741" value="1"/>
  <variable name="X(63,62,12)" index="910433" value="1"/>
  <variable name="X(63,68,29)" index="913184" value="1"/>
  <variable name="X(63,131,59)" index="915948" value="1"/>
  <variable name="X(64,61,2527)" index="921150" value="1"/>
  <variable name="X(64,132,60)" index="921417" value="1"/>
  <variable name="X(65,4,2574)" index="926665" value="1"/>
  <variable name="X(65,133,61)" index="926886" value="1"/>
  <variable name="X(67,61,2626)" index="932185" value="1"/>
  <variable name="X(67,135,62)" index="932355" value="1"/>
  <variable name="X(68,31,29)" index="935056" value="1"/>
  <variable name="X(68,32,30)" index="937791" value="1"/>
  <variable name="X(68,63,1239)" index="941734" value="1"/>
  <variable name="X(68,136,63)" index="943292" value="1"/>
 </variables>
</CPLEXSolution>
